language Essence 1.3

letting bot_end be [651, 642, 118, 17, 53, 24, 547, 19, 652, 2, 18, 650, 550, 587, 508, 34; int(1..16)]
letting bot_start be [268, 279, 571, 390, 477, 419, 3, 498, 93, 572, 400, 234, 137, 98, 112, 484; int(1..16)]
letting buffer_col be 2
letting buffer_row be 2
letting corridor_size be 1
letting n_shelves_col be 2
letting n_shelves_row be 31
letting shelf_col_size be 2
letting shelf_row_size be 1
